
 102   30
  10   10   10   10   10   10   10   10   10   10   10   10   10   10   10   10   10   10   10   10   10   10   10   10   10   10   10   10   10   10

   0   0   0   0   0   0   0   0   0   0   0   0   0   0   0   0   0   0   0   0   0   0   0   0   0   0   0   0   0   0   0  27 2 3 4 5 6 7 8 9 10 11 12 14 15 17 18 19 20 21 23 24 25 26 27 28 30 41 42 
   7   0   0   0   0   0   0   0   0   1   0   0   3   0   0   0   0   0   0   0   0   0   0   0   0   0   0   1   0   0   0  16 73 72 64 60 57 55 54 52 50 47 46 45 40 37 29 16 
   8   0   0   0   0   0   0   0   0   0   0   0   0   0   0   0   0   0   0   0   0   0   0   0   0   1   0   0   0   0   0  15 100 71 70 64 63 60 55 54 51 47 44 37 34 33 31 
   6   0   1   1   0   0   1   0   0   0   0   1   0   0   0   0   0   0   0   0   0   0   0   0   0   0   0   0   0   2   0  10 71 64 63 57 45 44 39 36 32 13 
   9   0   0   0   0   0   0   1   0   0   0   0   0   1   0   0   0   0   0   0   0   5   0   0   0   0   0   0   0   0   0  16 101 100 73 64 61 60 55 53 52 48 45 44 40 39 37 29 
   3   0   0   0   0   0   0   0   0   0   0   0   0   0   0   0   0   0   0   0   0   6   0   0   1   0   0   0   0   0   2  12 99 98 73 64 55 52 51 49 48 45 29 16 
   3   0   8   0   0   0   0   0   0   0   0   0   0   0   0   0   1   0   2   0   0   4   0   1   0   0   0   0   0   0   0  11 101 100 72 52 51 48 44 37 35 29 22 
   1   0   0   0   0   0   0   5   0   0   0   0   0   0   0   0   0   0   0   0   0   0   0   8   0   0   0  10   0   0   0  15 100 73 70 64 63 62 60 56 54 51 49 47 43 32 31 
   4   0   0   0   2   3   0   6   0   0   0   0   7   0   0   0   0   1   0   0   0   0   0   0   0   0   0   0   0   0   0  10 101 100 98 72 65 53 48 44 29 22 
   4   1   0   0   0   0   0   0   0   4   0   0   0   0   0   0   0   0   3   0   1   0   0   8   0   0   3   0   0   0   0  14 101 100 72 71 70 68 63 56 52 49 47 45 44 32 
   6   7   0   0   0   3   0   6   0   0   0   0   3   0   0   0  10   0   0   0   0   7   4   0   0  10   0   0   0   0  10   8 96 93 61 59 47 46 38 32 
   1   0   0   0   0   0   6  10   0   0   0   0   0   0   0   0   0   3   0   0   0   0   0   0   0   0   0   0   3   0   4  15 99 97 95 94 91 73 71 70 69 67 66 65 58 43 37 
   7   0   0   0   0   0   0   0   0   0   0   5   0   0   0   0   0   0   0   0   4   3   0   0   0   0   0   0   0   0   0  12 101 100 96 93 91 73 70 66 54 48 47 38 
   3   7   0   0   4   8   0   0   0   0   0   0   0   0   2   0   0   0   0   0   0   0   0   0   0   0   0   0   0   0   5  13 100 95 94 91 73 67 66 59 56 51 49 45 35 
   9   0   0   0   0   0   0   0   0   6   0   0   0   3   0   3   0   0   8   0   0   0   0   0   0   0   4   0   0   0   2  14 100 98 96 94 91 82 80 68 67 65 64 63 46 35 
   3   0   0   0   0   0   0   5   0   0   0   0   0   0   0   0   0   0   0   0   7   0   0   0   0   0   0   0   0   0   0  16 101 100 95 90 85 81 71 70 69 68 67 65 61 59 53 44 
   6   0   5   0   0   6   0   0   0   0   1   0   0   2   0   0   0   0   0   0   0   0   0   0   0   0   0   0   4   0   0  16 101 100 98 97 95 93 92 91 88 71 64 62 59 58 55 45 
   9   0   0   0   0   0   5   0   0   0   0   0   0   0   0   0   0   0   0   0   0   0   0   7   4   0   0   0   0   0   0  15 97 96 92 91 88 72 70 69 68 63 62 58 54 51 47 
   4   3   0   0   0   0   0   0   0   0   0   0   0   0   0   0   0   0   0   0   0   0   0   0   0   4   0   0   0   5   0  15 100 98 96 93 91 88 86 81 73 68 63 62 58 47 40 
   3   0   0   0   0   0   0   0   1   0   0   0   0   0   8   0   0   0   0   0   0   0   2   0   0   0   0   0   0   0   6  23 101 100 99 98 97 95 94 92 90 89 88 85 82 80 76 73 72 71 69 68 67 58 55 
   9   8   0   0   0   0   0   0   4   0   0   0   6   0   6   0   0   0   0   0   0   0   0   0   0   6   0   0   0   0   0  15 100 98 90 89 88 87 82 72 71 70 66 60 58 57 48 
   4   0   0   0   0   0   0   0   9   0   0   0   0   0   0   0   0   0   4   0   0   0   0   0   0   7   0   0   0   0   0  14 99 97 93 91 88 86 69 68 66 62 59 56 49 47 
  10   0   0   0   0   0   4   0   0   0   0   5   0   0   0   0   0   0   0   0   0   0   0   0   0   0   0   0   0   0  10  10 98 88 86 66 62 59 51 49 48 47 
  10   0   0   0   0   0   0   0   0   0   0   0   0   4   0   0   0   0   0   0   7   0   0   0   5   9   0   3   0  10   0  16 101 100 99 96 94 93 89 80 75 69 68 67 63 61 58 45 
   3   4   0   0   7   0   0   0   0   0   0   0   0   0   0   0   0   0   0   0   0   0   0   0   0   0   0   0   0   4   0  15 98 96 94 93 91 89 83 81 80 73 70 68 66 54 46 
   5   0   0   0   0   0   0   6   0   0   0   0   0   0   0   4   0   7   0   2   0   0   0   0   4   0   0   0   0   0   6  15 97 96 95 92 91 89 86 83 82 80 69 66 65 63 46 
   3  10   0   0   0   0   0   0   0   0   0   0   0   0   0   0   4   0   0   0   9   0   0   0   0   0   0   0   0   0   0  18 98 96 94 92 91 90 88 85 81 79 77 72 69 67 66 65 62 59 
   5   0   4   9   5   0   0   0   0   0   0   0   0   0   0   0   0   0   0   0   0   0   0   0   0   0   6   0   0   0   0  13 100 96 95 93 90 88 84 78 70 65 62 59 48 
   8   0   0   0   0   0   0   0   0   0   0   0   0   0   0   0   0   6   0   0   0   6   0   5   0   0  10   0   0   0   0  18 97 96 95 93 91 90 89 88 87 83 81 80 77 71 70 63 62 58 
   2   0   0   0   0   0   4   0   0   0   0   0   0   0   0   0   0   0   0   0   0   0   0   0   0   0   0   0   6   5   7  19 99 98 97 95 92 89 88 87 85 84 81 80 79 78 77 76 74 67 60 
   5   0   2   6   0   0   0   8   0   5   4   8   0   0   0   0   0   0   0   0   0   0   0   0   4   0   0   5   0   0   0  14 101 99 98 88 87 86 85 84 82 80 78 74 68 48 
   2   7   0   0   0   0   8   0   0   0   0   0   0   8   0   0   0   0   0   0   0   5   0   0   0   0   0   0   0   5   0  11 99 97 91 88 85 82 80 66 65 58 48 
   2   0   0   0   0   0   0   0   9   0   0   0   0   0   0   0   0   0   0   0   0   0   0   0   0   0   0   0   2   8   0  11 101 98 96 95 94 92 91 88 69 66 45 
   3   0   0   0   0   0   0   7   0   0   0   0   0   6   0   7   0   0   0   2   0   0   6   0   8   7   0   0   0   0   5  15 98 97 92 91 90 88 86 83 82 78 75 73 72 65 59 
   6   0   0   0   0  10  10   0   0   0   0   0   0   0   0  10   0   0   0   0   0   0   0   0   0   0   0   0  10   0   0  16 99 97 93 92 90 89 88 87 85 83 81 77 75 74 70 58 
   5   0   0   0   0   0   0   7   0   0   0   0   0   0   6   0   0   0   0   0   0   9   0   0   0   0   0   0   0   0   0  15 100 97 95 94 93 92 85 83 81 79 78 76 74 62 60 
   5   0   0   0   0   0   6   5   0   0   0   0   0   0   0   0   0   0   0   0   0   0   0   0   0   0   0   0   0   0   0  14 98 96 93 92 90 87 86 84 83 81 78 77 62 59 
   4   0   0   0   0   0   0   0   0   0   0   4   0   0   0   0   0   0   0   0   0   0   0   0   0   0   0   0   0   0   0  14 99 95 88 86 85 83 81 80 76 74 72 69 68 62 
   7   0   0   0   0   0   0   7   0   0   0   0   0   0   0   0   7   0   0   0   0   6   0   0   4   0   0   0   0   0   0  13 98 97 90 85 83 82 80 79 78 74 69 68 66 
   8   0   0   0   0   0   0   0   0   0   0   9   0   0   0   0   0   0   0   0   0   0   0   0   0   0   0   4   0   0   0  13 97 95 94 89 85 82 80 79 78 77 76 71 69 
   9   0   0   0   7   0   0   0   5   0   0   0   0  10  10   0   0   0   0   0   0  10   0   0   0   0   0  10   7   8   0  13 99 92 90 88 86 82 81 80 78 77 76 74 69 
   7   0   0   0   0   0   0   0   0   0  10   0   0   0   0   0   0   0   0   0   0   5   0   4   0   0   0   0   0   0   0  11 94 90 88 84 83 82 81 79 75 70 65 
  10   5   0   0   0   0   0   0   0   0   0   0   0   0   0   0   0   0   0   0   0   6   0   0   0   0   6   0   0   0   0  11 88 87 85 84 83 82 81 79 76 74 68 
  10   0   0   0   0   0   6   0   0   0   0   0   0   6   0   0   0   0   0   0   0   0   0   0   0   0   0   0   0   0   0   7 93 89 87 76 74 62 58 
   3   0   0   4   0   0   0   0   0   6   0   0   0   0   7   0   0   7   0   6   0   0   0   0   7   8   0   0   0   0   0   9 87 86 85 81 79 78 77 76 65 
   8   0   0   0   0   0   0   7   7   0   0   0   0   0   0   0   0   0   7   0   0   0   0   0   0   0   7   0   0   5   0   6 90 88 85 77 71 58 
   1   0   0   0   0   0   0   0   0   0   0   0   0   9   4   0   0   0   0   0   0   0   0   0   4   0   0   0   0   0   0   9 95 90 89 85 83 80 78 75 74 
   6   0   0   9   8   0   0   0   0   0   0   0   0   0   0   0   7   0   0   0   0   0   0   0   0   0   0   7   0   0   0   8 94 92 81 79 77 76 75 67 
   8   0   0   0   0   0   0   0   0   0   0   0   0   0   0   0   0   8   0   0   0   0   8   7   0   0   0   6   0   0   0   6 87 82 81 76 75 58 
   7   0   0   0   0   0   0   0   0   0   0   0   0   0   0   0   0   0   0   0   0   0   0   0   0   0   5   0   0   0   0   6 98 97 94 79 77 59 
   8   0   0   0   0   0   0   0   0   0   0   0   0   5   0   0   0   0   0   0   0   0   0   0   0   0   6   0  10   8   6   7 93 81 80 78 77 75 65 
   8   0   0   0   0   0   0   0   0   0   0   0   0   0   6   0   0   0   0   0   0   7   0   0   0   5   5   0   0   0   0   7 95 94 91 86 80 78 75 
   8   0   0   4   0  10   0   0   0   0   0   0   0   0   0   0   8   0   0   0   0   0   0   0   0   5   0   0   0   0   0   7 89 87 86 82 80 75 74 
  10   0   0   0   0   0   0   0   0   0   0   0   0   0   0   0   0   0   0   0   0   0   0   0   0   5   0   0   9   0   0   5 90 84 82 76 65 
   2   0  10   0   6   0   8   0   0  10   0   0   0  10   0   0   0   0   0   0   0   0   0   0   0   6   0   0   0   0   0   5 83 81 78 77 66 
   3   0   0   0   7   0   0   0   0   5   0   0   5   7   0   0   0   0   0   0   0   0   0   0   8   0   6   0   0   0   0   5 96 90 85 76 74 
   5   0   0   0   0   0   8   0   0   0   0   0   4   0   0   0   0   0   0   0   0   6   0   0   0   0   0   0   0   0   0   5 96 93 85 80 77 
   2   0   0   0   6   0   0   5   0   0   0   0   0   0   0   0   0   8   0   0   3   0   0   0   0   0   0   0   0   0   0   3 84 79 78 
   3   0   0   0   0   0   0   0   0   0   0   0   0   0   0   0   0   0   0   0   0   0   0   3   0   0   0   0   0   0   0   3 89 80 76 
   5   0   0  10   4   0   0   8   0   0   0   0   0   0   0   0   0   0   0   0   0   0   0   0   0   0   0   0   0   0   0   3 91 86 75 
   3   0   7   0  10   0   0   0   0   0   8   0   0   0   0   0   0   0   0   0  10   0   0   0   0   0   0   0   7   0   5   3 91 88 74 
   2   8   0   7   0   0   0   0   0   0   0   9   0   0   0   0   0   0   0   0   0   0   0   6   0   0   0   0   0   0   0   2 82 75 
   5   6   0   0   0   0   0   0   0   0   0   0   9   0   0   0   0   0   0   0   0   0   0   0   0   0   0   0   0   0   0   2 76 74 
   6   0   5   0   0   0   0   0   0   0   0   0   0   5   0   0   0   0   0   0   0   0   5   0   0   0   0   0   0   0   0   2 90 89 
   8   0   0   0   0   0   0   0   0   0   0   0   0   0   0   0   0   0   0   0   0   0   7   0   0   6   0   0   0   0   0   1 74 
   8   0   0   0   0   0   0   0   7   5   4   0   0   6   0   0   0   0   0   0   0   4   0   4   0   0   0   0   0   0   0   1 75 
   3   0   0   4   0   0   0   0   0   0   0   0   0   0   0   0   0   0   0   0   7   6   0   0   6   0   0   0   0   0   0   1 83 
   6   4   0   0   0   6   0   0   0   0   0   0   0   0   0   0   4   0   6   5   0   0   6   0   0   0   0   0   0   0   0   1 77 
   3   0   0   8   0   0   0   0   0   0   0   0   0   0   0   0   0   0   0   0   0   0   0  10   0   0   0   0   5   0   0   1 87 
   7   0   0   0   0   0   0   0   0   0   5   0   0   0   0   0   0   0   0   0   0   0   0   0   0   5   0   8   0   0   0   1 86 
   2   0   0   0   0   6   4   0   0   7   0   0   0   0   0   0   5   8   0   0   0   0   0   6   0   0   0   0   0   0   0   1 74 
   5   0   8   0   0   0   0   0   0   0   0   0   0  10   0   0   0   0   0   0   0   7   7   9  10   0   0   6   0   0   0   1 84 
   7   0   0   0   0   0   0   0   0   0   6   0   7   0   0   0   9   0   0   0   0   0   0   9   0   0   0   0   0   6   0   1 79 
   5   0   0   0   0   0   0   0   0   0   0  10   0   0   0   0   0   0   0   0   0   0   0   0   9   0   0   0   0   0   7   1 102
   7   0   0   7   7   0   0   0   0   0   0   0   0   0   0   0   0   0   0   0   0   0   0   0   0   0   0   0   0   0   0   1 102
   6   0   0   0   0   0   0   0   6   8   0   0   0   0   0   0   7   0   0   7   0   0   0   0   0   0   0   0   0   6   0   1 102
   6   0   0   0   0   0   0   4   0   0   0   0   0   0   0   0   0   0   0   0   0   0   0   0   0   0   0   0   0   0   0   1 102
   5   0   0   0   6   0   0   0   0   0   0   0   0   0   4   0   2   0   0   0   0   0   0  10  10   0   0   0   0   0   0   1 102
   6   0   0   0   0   3   0   0   0   0   0   0   0   2   0   0   0   0   0   0   0   0   0   0   0   0   0   0   0   0   0   1 102
   6   0   0   0   0   6   0   0   0   7   0   0  10   0   0   0   0   0   0   0   0   0   0   0   0   0   0   0   0   0   0   1 102
   6   0   0   4   0   0   4   0   0   0   0   0   0   0   5   0   0   0   0   0   0   0   0   0   0   0   0   0   0   0   0   1 102
   6   0   0   0   0   0   7   0   5   0   0   0   0  10   0   0   0   0   5  10   0   5   0   0   0   0   0   0   0   0   0   1 102
   1   0   7   0   0   0   0   0   0   0  10   0   0   0   0   0   0   0   0   0   4   0   0   0   0   0   0   0   5   0   0   1 102
  10   0   0   0   0   0   0   0   0   0   0   0   0   0   0   0   8   0   6   8   0   0   0   0   0   0   0   0   0   0   0   1 102
   5   9   0   0   0   0   0   0   0   0   0   0   0   0   0   0   0   0   0   0   0   0  10   0   0   0   0   0   0   0   0   1 102
   4   0   0   0   0   0   0   0   0   0   0   0   0   0   0   0   0   0   0   0   0  10   0   0   0   0   7   0   0   0   0   1 102
   1   0   0   0   0   0   0   0   0   8   0   0   0   0   0   0   0   0   0   0   5   0   0   0   0   0   0   0   0   0   0   1 102
   4   0   0   0   6   0   0   0   0   0   6   0   0   0   0   0   0   0   0   0   0   0   0   0   9   0   0   0   0   0   6   1 102
   6   0   7   0   0   0   0   0   0   0   0   0   0   0   0   0   0   0  10   8   9   0   0   2   0   0   0   0   0   0   0   1 102
   9   0   0   6   0   6   0   0   0   0   0   0   0   0   0   0   0   0   0   0   0   0   7   5   0   0   0   0   0   0   0   1 102
   9   0   0   0   0   0   0   0   0   0   0   0   0   0   0   6   0   0   0   0   0   0   0   5   0   0   0   0   8   0   0   1 102
   9   0   0   0   0   0   9   0   0   0   0   0   0   0   0   0   0   0   0   0   0   0   0   0   0   0   0   0   0   0   0   1 102
   8   0   0   0   5   0   0   0   0   0   0   3   0   6   0   0   0   0   7   0   0   0   0   6   0   0   0   0   0   0   8   1 102
   5   0   8   0   0   0   0   0   0   0   0   0   0   0   0   0   0   0   0   0   0   0   0   5   0   0   0   0   0   0   0   1 102
   5   0   0   0   0   0   0   0   0   0   7   0   0   0   0   0   0   0   0   0   0   0   4   7   0   0   5   0   0   0   0   1 102
   7   0   0   0   0   0   0   0   0   0   0   0   0   0   0   0   0   0   0   0   0   3   0   0   0   0   0   0   0   0   0   1 102
   1   0   0   0   0   5   0   5   7   0   0   0   0   4   6   0   0   0   0   0   0   0   0   0   0   0   0   0   4   0   7   1 102
   7   0   0   0   0   0   0   0   0   0   0   0   0   0   0   0   0   0   0   0   0   0   0   0   0   0   0   6   0   0   6   1 102
   1   5   0   0   0   0   0   0   0   0   5   0   0   0   8   0   0   0   4   0   0   0   0   0   3   0   0   0   7   0   0   1 102
   5   0   0   5   0   6   0   0   0   0   0   0   0   0   0   0   0   0  10   0   0   0   0   3   0   0   0   0   3   0   0   1 102
   1   0   0   0   0   0   0   0   0   0   0   0   0   0   0   0   0   0   0   0   0   0   0   8   0   0   8   0   0   0   0   1 102
   0   0   0   0   0   0   0   0   0   0   0   0   0   0   0   0   0   0   0   0   0   0   0   0   0   0   0   0   0   0   0   0 
